--- Job gams_0064_002_32_04_0.67_05_0.25_0.90_23_problem.txt Start 02/24/21 20:03:46 35.2.0 r33388c4 WEX-WEI x86 64bit/MS Windows
--- Applying:
    C:\Users\MariaSosnovskaya\GAMS35\gmsprmNT.txt
--- GAMS Parameters defined
    Input C:\Users\MariaSosnovskaya\Downloads\WfmGams3\problems\gams_0064_002_32_04_0.67_05_0.25_0.90_23_problem.txt
    ScrDir C:\Users\MariaSosnovskaya\Downloads\WfmGams3\225k\
    SysDir C:\Users\MariaSosnovskaya\GAMS35\
Licensee: GAMS Evaluation License                        S210124/0001AB-GEN
          Sobolev Institute of Mathematics, Discrete Optimization LaDCE1098
          C:\Users\MariaSosnovskaya\GAMS35\gamslice.txt
          Evaluation license: Not for commercial or production use
GAMS 35.2.0   Copyright (C) 1987-2021 GAMS Development. All rights reserved
--- Starting compilation
--- gams_0064_002_32_04_0.67_05_0.25_0.90_23_problem.txt(22) 3 Mb
--- . gams_0064_002_32_04_0.67_05_0.25_0.90_23.inc(6600) 3 Mb
--- gams_0064_002_32_04_0.67_05_0.25_0.90_23_problem.txt(98) 3 Mb
--- Starting execution: elapsed 0:00:00.042
--- gams_0064_002_32_04_0.67_05_0.25_0.90_23_problem.txt(6621) 4 Mb
--- Generating MIP model mymodel
--- gams_0064_002_32_04_0.67_05_0.25_0.90_23_problem.txt(6677) 9 Mb
---   16,769 rows  12,289 columns  56,417 non-zeroes
---   12,288 discrete-columns
--- Executing CPLEX (Solvelink=2): elapsed 0:00:00.171

IBM ILOG CPLEX   35.2.0 r33388c4 Released Jun 02, 2021 WEI x86 64bit/MS Window

--- GAMS/Cplex licensed for continuous and discrete problems.
--- Space for names approximately 0.61 Mb
--- Use option 'names no' to turn use of names off
--- GMO memory 6.31 Mb (peak 6.40 Mb)
--- Dictionary memory 0.00 Mb
--- Cplex 20.1.0.1 link memory 0.43 Mb (peak 1.99 Mb)
--- Starting Cplex

Version identifier: 20.1.0.1 | 2021-04-07 | 3a818710c
CPXPARAM_Advance                                 0
CPXPARAM_Threads                                 1
CPXPARAM_MIP_Display                             4
CPXPARAM_TimeLimit                               3600
CPXPARAM_MIP_Tolerances_AbsMIPGap                0
Generic callback                                 0x50
Tried aggregator 2 times.
MIP Presolve eliminated 8321 rows and 802 columns.
Aggregator did 192 substitutions.
Reduced MIP has 8256 rows, 11296 columns, and 37961 nonzeros.
Reduced MIP has 11296 binaries, 0 generals, 0 SOSs, and 0 indicators.
Presolve time = 0.08 sec. (42.47 ticks)
Probing fixed 888 vars, tightened 0 bounds.
Probing changed sense of 46 constraints.
Probing time = 0.08 sec. (29.81 ticks)
Tried aggregator 16 times.
MIP Presolve eliminated 368 rows and 947 columns.
Aggregator did 368 substitutions.
Reduced MIP has 7520 rows, 9981 columns, and 33931 nonzeros.
Reduced MIP has 9981 binaries, 0 generals, 0 SOSs, and 0 indicators.
Presolve time = 0.64 sec. (320.54 ticks)
Probing time = 0.02 sec. (4.47 ticks)
Tried aggregator 1 time.
Detecting symmetries...
Reduced MIP has 7520 rows, 9981 columns, and 33931 nonzeros.
Reduced MIP has 9981 binaries, 0 generals, 0 SOSs, and 0 indicators.
Presolve time = 0.05 sec. (30.20 ticks)
Probing time = 0.02 sec. (4.47 ticks)
Clique table members: 24865.
MIP emphasis: balance optimality and feasibility.
MIP search method: dynamic search.
Parallel mode: none, using 1 thread.
Tried aggregator 1 time.
No LP presolve or aggregator reductions.
Presolve time = 0.00 sec. (4.39 ticks)
Initializing dual steep norms . . .

Iteration log . . .
Iteration:     1   Dual objective     =          8780.000000
Perturbation started.
Iteration:   101   Dual objective     =          8780.000000
Iteration:   468   Dual objective     =          8779.999842
Iteration:   821   Dual objective     =          8779.999740
Iteration:  1166   Dual objective     =          8779.999630
Iteration:  1529   Dual objective     =          8779.999496
Iteration:  1893   Dual objective     =          8779.999355
Iteration:  2260   Dual objective     =          8779.999226
Iteration:  2599   Dual objective     =          8779.999172
Iteration:  2942   Dual objective     =          8779.999134
Iteration:  3261   Dual objective     =          8779.999106
Iteration:  3590   Dual objective     =          8779.999082
Iteration:  3906   Dual objective     =          8779.999059
Iteration:  4213   Dual objective     =          8779.999041
Iteration:  4513   Dual objective     =          8779.999025
Iteration:  4744   Dual objective     =          8779.999012
Iteration:  4959   Dual objective     =          8779.999003
Iteration:  5203   Dual objective     =          8779.998990
Iteration:  5403   Dual objective     =          8779.998983
Iteration:  5626   Dual objective     =          8779.998974
Iteration:  5869   Dual objective     =          8779.998963
Iteration:  6058   Dual objective     =          8779.998954
Iteration:  6200   Dual objective     =          8779.998949
Iteration:  6349   Dual objective     =          8779.998942
Iteration:  6497   Dual objective     =          8779.998937
Iteration:  6635   Dual objective     =          8779.998934
Iteration:  6759   Dual objective     =          8779.998931
Iteration:  6902   Dual objective     =          8779.998928
Iteration:  7030   Dual objective     =          8779.998927
Iteration:  7184   Dual objective     =          8779.998924
Iteration:  7313   Dual objective     =          8779.998922
Iteration:  7430   Dual objective     =          8779.998921
Iteration:  7549   Dual objective     =          8779.998920
Iteration:  7672   Dual objective     =          8779.998919
Iteration:  7788   Dual objective     =          8779.998918
Iteration:  7901   Dual objective     =          8779.998917
Iteration:  8010   Dual objective     =          8779.998917
Removing perturbation.
Root relaxation solution time = 0.98 sec. (605.07 ticks)

        Nodes                                         Cuts/
   Node  Left     Objective  IInf  Best Integer    Best Bound    ItCnt     Gap

      0     0     8780.0000  1439                   8780.0000     8067         
      0     0     8780.0000   837                    Cuts: 36     9111         
      0     0     8780.0000   671                    Cuts: 80    10329         
      0     0     8780.0000   559                    Cuts: 69    11271         
      0     0     8780.0000   436                ZeroHalf: 45    11887         
      0     0     8780.0000   437                ZeroHalf: 40    12638         
      0     0     8780.0000   259                 ZeroHalf: 6    12919         
      0     0     8780.0000   339                ZeroHalf: 30    13422         
*     0+    0                         8780.0000     8780.0000             0.00%
Found incumbent of value 8780.000000 after 10.73 sec. (6740.26 ticks)
      0     0        cutoff           8780.0000     8780.0000    13422    0.00%
Elapsed time = 10.73 sec. (6740.27 ticks, tree = 0.01 MB, solutions = 1)

Zero-half cuts applied:  87
Lift and project cuts applied:  7
Gomory fractional cuts applied:  15

Root node processing (before b&c):
  Real time             =   10.73 sec. (6740.83 ticks)
Sequential b&c:
  Real time             =    0.00 sec. (0.00 ticks)
                          ------------
Total (root+branch&cut) =   10.73 sec. (6740.83 ticks)

--- MIP status (101): integer optimal solution.
--- Cplex Time: 10.73sec (det. 6740.87 ticks)

--- Fixing integer variables and solving final LP...

Version identifier: 20.1.0.1 | 2021-04-07 | 3a818710c
CPXPARAM_Advance                                 2
CPXPARAM_Threads                                 1
CPXPARAM_MIP_Display                             4
CPXPARAM_TimeLimit                               3600
CPXPARAM_MIP_Tolerances_AbsMIPGap                0
Tried aggregator 1 time.
LP Presolve eliminated 16769 rows and 12290 columns.
All rows and columns eliminated.
Presolve time = 0.01 sec. (7.10 ticks)

--- Fixed MIP status (1): optimal.
--- Cplex Time: 0.01sec (det. 12.44 ticks)


Proven optimal solution
MIP Solution:         8780.000000    (13422 iterations, 0 nodes)
Final Solve:          8780.000000    (0 iterations)

Best possible:        8780.000000
Absolute gap:            0.000000
Relative gap:            0.000000

--- Reading solution for model mymodel
--- gams_0064_002_32_04_0.67_05_0.25_0.90_23_problem.txt(6677) 9 Mb  10 secs
--- Executing after solve: elapsed 0:00:11.090
--- gams_0064_002_32_04_0.67_05_0.25_0.90_23_problem.txt(6678) 9 Mb--- gams_0064_002_32_04_0.67_05_0.25_0.90_23_problem.txt(6698) 9 Mb
--- Putfile results C:\Users\MariaSosnovskaya\Downloads\WfmGams3\problems\gams_0064_002_32_04_0.67_05_0.25_0.90_23_results.txt
*** Status: Normal completion
--- Job gams_0064_002_32_04_0.67_05_0.25_0.90_23_problem.txt Stop 02/24/21 20:03:58 elapsed 0:00:11.112
